
  17    4
  10   10   10   10

   0   0   0   0   0   3 2 3 6 
   5  10  10  10  10   3 12 8 5 
   4  10  10  10  10   3 8 7 4 
  10  10  10  10  10   5 15 14 12 11 9 
   8  10  10  10  10   3 16 10 7 
   9  10  10  10  10   3 16 10 7 
  10  10  10  10  10   3 15 14 11 
   2  10  10  10  10   2 14 13 
   4  10  10  10  10   1 10 
  10  10  10  10  10   1 13 
   1  10  10  10  10   1 13 
   8  10  10  10  10   1 13 
  10  10  10  10  10   1 17
   1  10  10  10  10   1 17
   6  10  10  10  10   1 17
   9  10  10  10  10   1 17
   0   0   0   0   0   0 
